CPXPARAM_Read_DataCheck                          1
Found incumbent of value 0.000000 after 0.00 sec. (0.26 ticks)
Tried aggregator 1 time.
MIP Presolve modified 1 coefficients.
Reduced MIP has 2016 rows, 10005 columns, and 50015 nonzeros.
Reduced MIP has 10005 binaries, 0 generals, 0 SOSs, and 0 indicators.
Presolve time = 0.03 sec. (21.77 ticks)
Probing time = 0.02 sec. (3.32 ticks)
Tried aggregator 1 time.
Reduced MIP has 2016 rows, 10005 columns, and 50015 nonzeros.
Reduced MIP has 10005 binaries, 0 generals, 0 SOSs, and 0 indicators.
Presolve time = 0.03 sec. (26.11 ticks)
Probing time = 0.00 sec. (3.32 ticks)
Clique table members: 12000.
MIP emphasis: balance optimality and feasibility.
MIP search method: dynamic search.
Parallel mode: deterministic, using up to 4 threads.
Root relaxation solution time = 0.11 sec. (162.86 ticks)

        Nodes                                         Cuts/
   Node  Left     Objective  IInf  Best Integer    Best Bound    ItCnt     Gap

*     0+    0                            0.0000    62256.0000              --- 
*     0+    0                         5651.0000    62256.0000              --- 
*     0+    0                         5742.0000    62256.0000           984.22%
*     0+    0                         5770.0000    62256.0000           978.96%
*     0+    0                         5777.0000    62256.0000           977.65%
      0     0    21173.8685     5     5777.0000    21173.8685     2700  266.52%
*     0+    0                        14569.0000    21173.8685            45.34%
      0     0        cutoff          14569.0000    14569.0000     4057    0.00%
Elapsed time = 1.33 sec. (891.97 ticks, tree = 0.01 MB, solutions = 6)

Clique cuts applied:  596
Cover cuts applied:  3
Implied bound cuts applied:  1
Mixed integer rounding cuts applied:  4

Root node processing (before b&c):
  Real time             =    1.33 sec. (892.89 ticks)
Parallel b&c, 4 threads:
  Real time             =    0.00 sec. (0.00 ticks)
  Sync time (average)   =    0.00 sec.
  Wait time (average)   =    0.00 sec.
                          ------------
Total (root+branch&cut) =    1.33 sec. (892.89 ticks)
